weight: 1445
vertices-order: 
1
8
14
15
16
18
29
24
23
26
32
33
34
27
30
35
19
31
36
55
37
47
56
65
58
60
57
59
61
38
48
39
40
49
41
42
50
51
62
68
67
43
44
52
63
69
70
71
72
77
86
85
84
99
108
109
110
111
102
100
76
75
83
82
81
90
94
91
95
92
98
80
79
93
101
89
88
97
103
105
106
107
96
104
115
118
128
129
130
135
136
147
148
149
150
151
152
153
154
155
156
157
158
159
160
161
162
163
164
171
178
187
199
200
210
209
217
220
218
221
219
232
233
231
230
229
228
226
227
225
216
208
207
206
215
205
204
203
214
222
201
211
223
234
235
236
237
224
212
213
202
188
179
180
141
131
132
140
139
138
137
146
165
173
181
182
189
191
190
198
183
174
166
167
175
184
192
193
194
195
196
197
186
185
176
177
168
169
170
172
145
119
120
121
122
123
124
113
114
125
133
142
143
144
134
126
127
112
116
117
87
74
66
73
78
64
53
54
45
9
5
6
2
10
20
21
11
12
17
22
7
3
4
13
25
28
46

